Minimize
Obj:	 2.1657459755596 aD2 + 1.73144956737287 aD3 + 3.49554639614335 aD1 + 2.67584154088785 aD4 + 0.2 nU1 + 0.2 nU2 + 0.2 nU3 + 0.2 nU4 + 0.2 nU5 + 0.2 nU6 + 0.2 nU7 + 0.2 nU8 + 0.2 nU9 + 0.2 nU10 + 0.2 nU11 + 0.2 nU12 + 0.2 nU13 + 0.2 nU14 + 0.2 nU15 + 0.2 nU16 + 0.2 nU17 + 0.2 nU18 + 0.2 nU19 + 0.2 nU20 + 0.2 nU21 + 0.2 nU22 + 0.2 nU23 + 0.2 nU24 + 0.2 nU25 + 0.2 nU26 + 0.2 nU27 + 0.2 nU28 + 0.2 nU29 + 0.2 nU30 + 0.2 nU31 + 0.2 nU32 + 0.2 nU33 + 0.2 nU34 + 0.2 nU35 + 0.2 nU36 + 0.2 nU37 + 0.2 nU38 + 0.2 nU39 + 0.2 nU40 + 0.2 nU41 + 0.2 nU42 + 0.2 nU43 + 0.2 nU44 + 0.2 nU45 + 0.2 nU46 + 0.2 nD1 + 0.2 nD2 + 0.2 nD3 + 0.2 nD4 + 0.2 nD5 + 0.2 nD6 + 0.2 nD7 + 0.2 nD8 + 0.2 nD9 + 0.2 nD10 + 0.2 nD11 + 0.2 nD12 + 0.2 nD13 + 0.2 nD14 + 0.2 nD15 + 0.2 nD16 + 0.2 nD17 + 0.2 nD18 + 0.2 nD19 + 0.2 nD20 + 0.2 nD21 + 0.2 nD22 + 0.2 nD23 + 0.2 nD24 + 0.2 nD25 + 0.2 nD26 + 0.2 nD27 + 0.2 nD28 + 0.2 nD29 + 0.2 nD30 + 0.2 nD31 + 0.2 nD32 + 0.2 nD33 + 0.2 nD34 + 0.2 nD35 + 0.2 nD36 + 0.2 nD37 + 0.2 nD38 + 0.2 nD39 + 0.2 nD40 + 0.2 nD41 + 0.2 nD42 + 0.2 nD43 + 0.2 nD44 + 0.2 nD45 + 0.2 nD46
Subject To
c1:	n35 - aD1 <= 1	 	
c2:	n46 - aD2 <= -1	 	
c3:	n41 - aD3 <= -1	 	
c4:	n40 - aD4 <= -1	 	
c5:	n35 + aD1 >= 1	 	
c6:	n46 + aD2 >= -1	 	
c7:	n41 + aD3 >= -1	 	
c8:	n40 + aD4 >= -1	 	
c9:	eU59 - n20 >= 0	 	
c10:	eU37 - n20 >= 0	 	
c11:	eU6 - n5 >= 0	 	
c12:	eU52 - n29 >= 0	 	
c13:	eU58 - n16 >= 0	 	
c14:	eU22 - n16 >= 0	 	
c15:	eU46 - n16 >= 0	 	
c16:	eU45 - n26 >= 0	 	
c17:	eU63 - n13 >= 0	 	
c18:	eU17 - n13 >= 0	 	
c19:	eU34 - n13 >= 0	 	
c20:	eU48 - n13 >= 0	 	
c21:	eU41 - n13 >= 0	 	
c22:	eU65 - n32 >= 0	 	
c23:	eU21 - n12 >= 0	 	
c24:	eU27 - n12 >= 0	 	
c25:	eU28 - n12 >= 0	 	
c26:	eU26 - n12 >= 0	 	
c27:	eU16 - n12 >= 0	 	
c28:	eU60 - n31 >= 0	 	
c29:	eU12 - n11 >= 0	 	
c30:	eU3 - n3 >= 0	 	
c31:	eU15 - n1 >= 0	 	
c32:	eU8 - n7 >= 0	 	
c33:	eU57 - n30 >= 0	 	
c34:	eU47 - n27 >= 0	 	
c35:	eU49 - n17 >= 0	 	
c36:	eU25 - n14 >= 0	 	
c37:	eU32 - n14 >= 0	 	
c38:	eU19 - n14 >= 0	 	
c39:	eU62 - n4 >= 0	 	
c40:	eU5 - n4 >= 0	 	
c41:	eU38 - n21 >= 0	 	
c42:	eU40 - n23 >= 0	 	
c43:	eU7 - n6 >= 0	 	
c44:	eU36 - n19 >= 0	 	
c45:	eU20 - n15 >= 0	 	
c46:	eU39 - n22 >= 0	 	
c47:	eU44 - n25 >= 0	 	
c48:	eU35 + n18 >= 0	 	
c49:	eU13 + n5 >= 0	 	
c50:	eU33 + n16 >= 0	 	
c51:	eU30 + n16 >= 0	 	
c52:	eU53 + n13 >= 0	 	
c53:	eU64 + n32 >= 0	 	
c54:	eU23 + n12 >= 0	 	
c55:	eU18 + n12 >= 0	 	
c56:	eU29 + n12 >= 0	 	
c57:	eU9 + n8 >= 0	 	
c58:	eU66 + n33 >= 0	 	
c59:	eU1 + n1 >= 0	 	
c60:	eU42 + n1 >= 0	 	
c61:	eU4 + n1 >= 0	 	
c62:	eU31 + n1 >= 0	 	
c63:	eU54 + n1 >= 0	 	
c64:	eU55 + n2 >= 0	 	
c65:	eU2 + n2 >= 0	 	
c66:	eU50 + n28 >= 0	 	
c67:	eU10 + n9 >= 0	 	
c68:	eU11 + n10 >= 0	 	
c69:	eU56 + n17 >= 0	 	
c70:	eU24 + n17 >= 0	 	
c71:	eU51 + n14 >= 0	 	
c72:	eU61 + n4 >= 0	 	
c73:	eU43 + n24 >= 0	 	
c74:	eU14 + n6 >= 0	 	
c75:	eD59 + n20 >= 0	 	
c76:	eD37 + n20 >= 0	 	
c77:	eD6 + n5 >= 0	 	
c78:	eD52 + n29 >= 0	 	
c79:	eD58 + n16 >= 0	 	
c80:	eD22 + n16 >= 0	 	
c81:	eD46 + n16 >= 0	 	
c82:	eD45 + n26 >= 0	 	
c83:	eD63 + n13 >= 0	 	
c84:	eD17 + n13 >= 0	 	
c85:	eD34 + n13 >= 0	 	
c86:	eD48 + n13 >= 0	 	
c87:	eD41 + n13 >= 0	 	
c88:	eD65 + n32 >= 0	 	
c89:	eD21 + n12 >= 0	 	
c90:	eD27 + n12 >= 0	 	
c91:	eD28 + n12 >= 0	 	
c92:	eD26 + n12 >= 0	 	
c93:	eD16 + n12 >= 0	 	
c94:	eD60 + n31 >= 0	 	
c95:	eD12 + n11 >= 0	 	
c96:	eD3 + n3 >= 0	 	
c97:	eD15 + n1 >= 0	 	
c98:	eD8 + n7 >= 0	 	
c99:	eD57 + n30 >= 0	 	
c100:	eD47 + n27 >= 0	 	
c101:	eD49 + n17 >= 0	 	
c102:	eD25 + n14 >= 0	 	
c103:	eD32 + n14 >= 0	 	
c104:	eD19 + n14 >= 0	 	
c105:	eD62 + n4 >= 0	 	
c106:	eD5 + n4 >= 0	 	
c107:	eD38 + n21 >= 0	 	
c108:	eD40 + n23 >= 0	 	
c109:	eD7 + n6 >= 0	 	
c110:	eD36 + n19 >= 0	 	
c111:	eD20 + n15 >= 0	 	
c112:	eD39 + n22 >= 0	 	
c113:	eD44 + n25 >= 0	 	
c114:	eD35 - n18 >= 0	 	
c115:	eD13 - n5 >= 0	 	
c116:	eD33 - n16 >= 0	 	
c117:	eD30 - n16 >= 0	 	
c118:	eD53 - n13 >= 0	 	
c119:	eD64 - n32 >= 0	 	
c120:	eD23 - n12 >= 0	 	
c121:	eD18 - n12 >= 0	 	
c122:	eD29 - n12 >= 0	 	
c123:	eD9 - n8 >= 0	 	
c124:	eD66 - n33 >= 0	 	
c125:	eD1 - n1 >= 0	 	
c126:	eD42 - n1 >= 0	 	
c127:	eD4 - n1 >= 0	 	
c128:	eD31 - n1 >= 0	 	
c129:	eD54 - n1 >= 0	 	
c130:	eD55 - n2 >= 0	 	
c131:	eD2 - n2 >= 0	 	
c132:	eD50 - n28 >= 0	 	
c133:	eD10 - n9 >= 0	 	
c134:	eD11 - n10 >= 0	 	
c135:	eD56 - n17 >= 0	 	
c136:	eD24 - n17 >= 0	 	
c137:	eD51 - n14 >= 0	 	
c138:	eD61 - n4 >= 0	 	
c139:	eD43 - n24 >= 0	 	
c140:	eD14 - n6 >= 0	 	
c141:	eU1 + eD1 <= 1	 	
c142:	eU2 + eD2 <= 1	 	
c143:	eU3 + eD3 <= 1	 	
c144:	eU4 + eD4 <= 1	 	
c145:	eU5 + eD5 <= 1	 	
c146:	eU6 + eD6 <= 1	 	
c147:	eU7 + eD7 <= 1	 	
c148:	eU8 + eD8 <= 1	 	
c149:	eU9 + eD9 <= 1	 	
c150:	eU10 + eD10 <= 1	 	
c151:	eU11 + eD11 <= 1	 	
c152:	eU12 + eD12 <= 1	 	
c153:	eU13 + eD13 <= 1	 	
c154:	eU14 + eD14 <= 1	 	
c155:	eU15 + eD15 <= 1	 	
c156:	eU16 + eD16 <= 1	 	
c157:	eU17 + eD17 <= 1	 	
c158:	eU18 + eD18 <= 1	 	
c159:	eU19 + eD19 <= 1	 	
c160:	eU20 + eD20 <= 1	 	
c161:	eU21 + eD21 <= 1	 	
c162:	eU22 + eD22 <= 1	 	
c163:	eU23 + eD23 <= 1	 	
c164:	eU24 + eD24 <= 1	 	
c165:	eU25 + eD25 <= 1	 	
c166:	eU26 + eD26 <= 1	 	
c167:	eU27 + eD27 <= 1	 	
c168:	eU28 + eD28 <= 1	 	
c169:	eU29 + eD29 <= 1	 	
c170:	eU30 + eD30 <= 1	 	
c171:	eU31 + eD31 <= 1	 	
c172:	eU32 + eD32 <= 1	 	
c173:	eU33 + eD33 <= 1	 	
c174:	eU34 + eD34 <= 1	 	
c175:	eU35 + eD35 <= 1	 	
c176:	eU36 + eD36 <= 1	 	
c177:	eU37 + eD37 <= 1	 	
c178:	eU38 + eD38 <= 1	 	
c179:	eU39 + eD39 <= 1	 	
c180:	eU40 + eD40 <= 1	 	
c181:	eU41 + eD41 <= 1	 	
c182:	eU42 + eD42 <= 1	 	
c183:	eU43 + eD43 <= 1	 	
c184:	eU44 + eD44 <= 1	 	
c185:	eU45 + eD45 <= 1	 	
c186:	eU46 + eD46 <= 1	 	
c187:	eU47 + eD47 <= 1	 	
c188:	eU48 + eD48 <= 1	 	
c189:	eU49 + eD49 <= 1	 	
c190:	eU50 + eD50 <= 1	 	
c191:	eU51 + eD51 <= 1	 	
c192:	eU52 + eD52 <= 1	 	
c193:	eU53 + eD53 <= 1	 	
c194:	eU54 + eD54 <= 1	 	
c195:	eU55 + eD55 <= 1	 	
c196:	eU56 + eD56 <= 1	 	
c197:	eU57 + eD57 <= 1	 	
c198:	eU58 + eD58 <= 1	 	
c199:	eU59 + eD59 <= 1	 	
c200:	eU60 + eD60 <= 1	 	
c201:	eU61 + eD61 <= 1	 	
c202:	eU62 + eD62 <= 1	 	
c203:	eU63 + eD63 <= 1	 	
c204:	eU64 + eD64 <= 1	 	
c205:	eU65 + eD65 <= 1	 	
c206:	eU66 + eD66 <= 1	 	
c207:	eU59 - n20 - eD59 <= 0	 	
c208:	eU37 - n20 - eD37 <= 0	 	
c209:	eU6 - n5 - eD6 <= 0	 	
c210:	eU52 - n29 - eD52 <= 0	 	
c211:	eU58 - n16 - eD58 <= 0	 	
c212:	eU22 - n16 - eD22 <= 0	 	
c213:	eU46 - n16 - eD46 <= 0	 	
c214:	eU45 - n26 - eD45 <= 0	 	
c215:	eU63 - n13 - eD63 <= 0	 	
c216:	eU17 - n13 - eD17 <= 0	 	
c217:	eU34 - n13 - eD34 <= 0	 	
c218:	eU48 - n13 - eD48 <= 0	 	
c219:	eU41 - n13 - eD41 <= 0	 	
c220:	eU65 - n32 - eD65 <= 0	 	
c221:	eU21 - n12 - eD21 <= 0	 	
c222:	eU27 - n12 - eD27 <= 0	 	
c223:	eU28 - n12 - eD28 <= 0	 	
c224:	eU26 - n12 - eD26 <= 0	 	
c225:	eU16 - n12 - eD16 <= 0	 	
c226:	eU60 - n31 - eD60 <= 0	 	
c227:	eU12 - n11 - eD12 <= 0	 	
c228:	eU3 - n3 - eD3 <= 0	 	
c229:	eU15 - n1 - eD15 <= 0	 	
c230:	eU8 - n7 - eD8 <= 0	 	
c231:	eU57 - n30 - eD57 <= 0	 	
c232:	eU47 - n27 - eD47 <= 0	 	
c233:	eU49 - n17 - eD49 <= 0	 	
c234:	eU25 - n14 - eD25 <= 0	 	
c235:	eU32 - n14 - eD32 <= 0	 	
c236:	eU19 - n14 - eD19 <= 0	 	
c237:	eU62 - n4 - eD62 <= 0	 	
c238:	eU5 - n4 - eD5 <= 0	 	
c239:	eU38 - n21 - eD38 <= 0	 	
c240:	eU40 - n23 - eD40 <= 0	 	
c241:	eU7 - n6 - eD7 <= 0	 	
c242:	eU36 - n19 - eD36 <= 0	 	
c243:	eU20 - n15 - eD20 <= 0	 	
c244:	eU39 - n22 - eD39 <= 0	 	
c245:	eU44 - n25 - eD44 <= 0	 	
c246:	eU35 + n18 - eD35 <= 0	 	
c247:	eU13 + n5 - eD13 <= 0	 	
c248:	eU33 + n16 - eD33 <= 0	 	
c249:	eU30 + n16 - eD30 <= 0	 	
c250:	eU53 + n13 - eD53 <= 0	 	
c251:	eU64 + n32 - eD64 <= 0	 	
c252:	eU23 + n12 - eD23 <= 0	 	
c253:	eU18 + n12 - eD18 <= 0	 	
c254:	eU29 + n12 - eD29 <= 0	 	
c255:	eU9 + n8 - eD9 <= 0	 	
c256:	eU66 + n33 - eD66 <= 0	 	
c257:	eU1 + n1 - eD1 <= 0	 	
c258:	eU42 + n1 - eD42 <= 0	 	
c259:	eU4 + n1 - eD4 <= 0	 	
c260:	eU31 + n1 - eD31 <= 0	 	
c261:	eU54 + n1 - eD54 <= 0	 	
c262:	eU55 + n2 - eD55 <= 0	 	
c263:	eU2 + n2 - eD2 <= 0	 	
c264:	eU50 + n28 - eD50 <= 0	 	
c265:	eU10 + n9 - eD10 <= 0	 	
c266:	eU11 + n10 - eD11 <= 0	 	
c267:	eU56 + n17 - eD56 <= 0	 	
c268:	eU24 + n17 - eD24 <= 0	 	
c269:	eU51 + n14 - eD51 <= 0	 	
c270:	eU61 + n4 - eD61 <= 0	 	
c271:	eU43 + n24 - eD43 <= 0	 	
c272:	eU14 + n6 - eD14 <= 0	 	
c273:	eD59 + n20 - eU59 <= 0	 	
c274:	eD37 + n20 - eU37 <= 0	 	
c275:	eD6 + n5 - eU6 <= 0	 	
c276:	eD52 + n29 - eU52 <= 0	 	
c277:	eD58 + n16 - eU58 <= 0	 	
c278:	eD22 + n16 - eU22 <= 0	 	
c279:	eD46 + n16 - eU46 <= 0	 	
c280:	eD45 + n26 - eU45 <= 0	 	
c281:	eD63 + n13 - eU63 <= 0	 	
c282:	eD17 + n13 - eU17 <= 0	 	
c283:	eD34 + n13 - eU34 <= 0	 	
c284:	eD48 + n13 - eU48 <= 0	 	
c285:	eD41 + n13 - eU41 <= 0	 	
c286:	eD65 + n32 - eU65 <= 0	 	
c287:	eD21 + n12 - eU21 <= 0	 	
c288:	eD27 + n12 - eU27 <= 0	 	
c289:	eD28 + n12 - eU28 <= 0	 	
c290:	eD26 + n12 - eU26 <= 0	 	
c291:	eD16 + n12 - eU16 <= 0	 	
c292:	eD60 + n31 - eU60 <= 0	 	
c293:	eD12 + n11 - eU12 <= 0	 	
c294:	eD3 + n3 - eU3 <= 0	 	
c295:	eD15 + n1 - eU15 <= 0	 	
c296:	eD8 + n7 - eU8 <= 0	 	
c297:	eD57 + n30 - eU57 <= 0	 	
c298:	eD47 + n27 - eU47 <= 0	 	
c299:	eD49 + n17 - eU49 <= 0	 	
c300:	eD25 + n14 - eU25 <= 0	 	
c301:	eD32 + n14 - eU32 <= 0	 	
c302:	eD19 + n14 - eU19 <= 0	 	
c303:	eD62 + n4 - eU62 <= 0	 	
c304:	eD5 + n4 - eU5 <= 0	 	
c305:	eD38 + n21 - eU38 <= 0	 	
c306:	eD40 + n23 - eU40 <= 0	 	
c307:	eD7 + n6 - eU7 <= 0	 	
c308:	eD36 + n19 - eU36 <= 0	 	
c309:	eD20 + n15 - eU20 <= 0	 	
c310:	eD39 + n22 - eU39 <= 0	 	
c311:	eD44 + n25 - eU44 <= 0	 	
c312:	eD35 - n18 - eU35 <= 0	 	
c313:	eD13 - n5 - eU13 <= 0	 	
c314:	eD33 - n16 - eU33 <= 0	 	
c315:	eD30 - n16 - eU30 <= 0	 	
c316:	eD53 - n13 - eU53 <= 0	 	
c317:	eD64 - n32 - eU64 <= 0	 	
c318:	eD23 - n12 - eU23 <= 0	 	
c319:	eD18 - n12 - eU18 <= 0	 	
c320:	eD29 - n12 - eU29 <= 0	 	
c321:	eD9 - n8 - eU9 <= 0	 	
c322:	eD66 - n33 - eU66 <= 0	 	
c323:	eD1 - n1 - eU1 <= 0	 	
c324:	eD42 - n1 - eU42 <= 0	 	
c325:	eD4 - n1 - eU4 <= 0	 	
c326:	eD31 - n1 - eU31 <= 0	 	
c327:	eD54 - n1 - eU54 <= 0	 	
c328:	eD55 - n2 - eU55 <= 0	 	
c329:	eD2 - n2 - eU2 <= 0	 	
c330:	eD50 - n28 - eU50 <= 0	 	
c331:	eD10 - n9 - eU10 <= 0	 	
c332:	eD11 - n10 - eU11 <= 0	 	
c333:	eD56 - n17 - eU56 <= 0	 	
c334:	eD24 - n17 - eU24 <= 0	 	
c335:	eD51 - n14 - eU51 <= 0	 	
c336:	eD61 - n4 - eU61 <= 0	 	
c337:	eD43 - n24 - eU43 <= 0	 	
c338:	eD14 - n6 - eU14 <= 0	 	
c339:	nU14 <= 0	 	
c340:	nU20 - eU38 <= 0	 	
c341:	nU46 - eU60 - eU66 <= 0	 	
c342:	nU18 - eU30 <= 0	 	
c343:	nU5 - eU26 <= 0	 	
c344:	nU29 - eU6 - eU7 <= 0	 	
c345:	nU16 - eU40 <= 0	 	
c346:	nU26 - eU64 - eU65 - eU62 - eU61 <= 0	 	
c347:	nU13 - eU54 - eU15 <= 0	 	
c348:	nU32 - eU4 <= 0	 	
c349:	nU12 - eU2 <= 0	 	
c350:	nU44 - eU52 <= 0	 	
c351:	nU31 - eU46 - eU49 - eU48 - eU5 - eU47 <= 0	 	
c352:	nU45 - eU57 <= 0	 	
c353:	nU41 - eU37 <= 0	 	
c354:	nU8 - eU59 <= 0	 	
c355:	nU42 - eU43 <= 0	 	
c356:	nU33 - eU17 <= 0	 	
c357:	nU11 - eU29 <= 0	 	
c358:	nU3 - eU31 <= 0	 	
c359:	nU1 - eU32 <= 0	 	
c360:	nU7 - eU3 <= 0	 	
c361:	nU30 - eU33 - eU58 - eU34 <= 0	 	
c362:	nU2 - eU51 <= 0	 	
c363:	nU28 - eU56 - eU16 <= 0	 	
c364:	nU35 - eU14 - eU13 <= 0	 	
c365:	nU9 - eU23 - eU24 <= 0	 	
c366:	nU10 - eU53 <= 0	 	
c367:	nU27 - eU1 <= 0	 	
c368:	nU17 - eU55 <= 0	 	
c369:	nU4 - eU42 <= 0	 	
c370:	nU21 - eU19 <= 0	 	
c371:	nU24 - eU63 - eU22 <= 0	 	
c372:	nU40 - eU36 <= 0	 	
c373:	nU23 - eU25 <= 0	 	
c374:	nU6 - eU27 <= 0	 	
c375:	nU36 - eU18 <= 0	 	
c376:	nU38 - eU21 <= 0	 	
c377:	nU19 - eU28 <= 0	 	
c378:	nU34 - eU9 - eU11 - eU12 - eU10 - eU8 - eU50 <= 0	 	
c379:	nU15 - eU39 <= 0	 	
c380:	nU43 - eU44 <= 0	 	
c381:	nU37 - eU20 <= 0	 	
c382:	nU22 - eU41 <= 0	 	
c383:	nU39 - eU35 <= 0	 	
c384:	nU25 - eU45 <= 0	 	
c385:	nD14 <= 0	 	
c386:	nD20 - eD38 <= 0	 	
c387:	nD46 - eD60 - eD66 <= 0	 	
c388:	nD18 - eD30 <= 0	 	
c389:	nD5 - eD26 <= 0	 	
c390:	nD29 - eD6 - eD7 <= 0	 	
c391:	nD16 - eD40 <= 0	 	
c392:	nD26 - eD64 - eD65 - eD62 - eD61 <= 0	 	
c393:	nD13 - eD54 - eD15 <= 0	 	
c394:	nD32 - eD4 <= 0	 	
c395:	nD12 - eD2 <= 0	 	
c396:	nD44 - eD52 <= 0	 	
c397:	nD31 - eD46 - eD49 - eD48 - eD5 - eD47 <= 0	 	
c398:	nD45 - eD57 <= 0	 	
c399:	nD41 - eD37 <= 0	 	
c400:	nD8 - eD59 <= 0	 	
c401:	nD42 - eD43 <= 0	 	
c402:	nD33 - eD17 <= 0	 	
c403:	nD11 - eD29 <= 0	 	
c404:	nD3 - eD31 <= 0	 	
c405:	nD1 - eD32 <= 0	 	
c406:	nD7 - eD3 <= 0	 	
c407:	nD30 - eD33 - eD58 - eD34 <= 0	 	
c408:	nD2 - eD51 <= 0	 	
c409:	nD28 - eD56 - eD16 <= 0	 	
c410:	nD35 - eD14 - eD13 <= 0	 	
c411:	nD9 - eD23 - eD24 <= 0	 	
c412:	nD10 - eD53 <= 0	 	
c413:	nD27 - eD1 <= 0	 	
c414:	nD17 - eD55 <= 0	 	
c415:	nD4 - eD42 <= 0	 	
c416:	nD21 - eD19 <= 0	 	
c417:	nD24 - eD63 - eD22 <= 0	 	
c418:	nD40 - eD36 <= 0	 	
c419:	nD23 - eD25 <= 0	 	
c420:	nD6 - eD27 <= 0	 	
c421:	nD36 - eD18 <= 0	 	
c422:	nD38 - eD21 <= 0	 	
c423:	nD19 - eD28 <= 0	 	
c424:	nD34 - eD9 - eD11 - eD12 - eD10 - eD8 - eD50 <= 0	 	
c425:	nD15 - eD39 <= 0	 	
c426:	nD43 - eD44 <= 0	 	
c427:	nD37 - eD20 <= 0	 	
c428:	nD22 - eD41 <= 0	 	
c429:	nD39 - eD35 <= 0	 	
c430:	nD25 - eD45 <= 0	 	
c431:	nU1 - nD1 + nAc1 - n1 = 0	 	
c432:	nU2 - nD2 + nAc2 - n2 = 0	 	
c433:	nU3 - nD3 + nAc3 - n3 = 0	 	
c434:	nU4 - nD4 + nAc4 - n4 = 0	 	
c435:	nU5 - nD5 + nAc5 - n5 = 0	 	
c436:	nU6 - nD6 + nAc6 - n6 = 0	 	
c437:	nU7 - nD7 + nAc7 - n7 = 0	 	
c438:	nU8 - nD8 + nAc8 - n8 = 0	 	
c439:	nU9 - nD9 + nAc9 - n9 = 0	 	
c440:	nU10 - nD10 + nAc10 - n10 = 0	 	
c441:	nU11 - nD11 + nAc11 - n11 = 0	 	
c442:	nU12 - nD12 + nAc12 - n12 = 0	 	
c443:	nU13 - nD13 + nAc13 - n13 = 0	 	
c444:	nU14 - nD14 + nAc14 - n14 = 0	 	
c445:	nU15 - nD15 + nAc15 - n15 = 0	 	
c446:	nU16 - nD16 + nAc16 - n16 = 0	 	
c447:	nU17 - nD17 + nAc17 - n17 = 0	 	
c448:	nU18 - nD18 + nAc18 - n18 = 0	 	
c449:	nU19 - nD19 + nAc19 - n19 = 0	 	
c450:	nU20 - nD20 + nAc20 - n20 = 0	 	
c451:	nU21 - nD21 + nAc21 - n21 = 0	 	
c452:	nU22 - nD22 + nAc22 - n22 = 0	 	
c453:	nU23 - nD23 + nAc23 - n23 = 0	 	
c454:	nU24 - nD24 + nAc24 - n24 = 0	 	
c455:	nU25 - nD25 + nAc25 - n25 = 0	 	
c456:	nU26 - nD26 + nAc26 - n26 = 0	 	
c457:	nU27 - nD27 + nAc27 - n27 = 0	 	
c458:	nU28 - nD28 + nAc28 - n28 = 0	 	
c459:	nU29 - nD29 + nAc29 - n29 = 0	 	
c460:	nU30 - nD30 + nAc30 - n30 = 0	 	
c461:	nU31 - nD31 + nAc31 - n31 = 0	 	
c462:	nU32 - nD32 + nAc32 - n32 = 0	 	
c463:	nU33 - nD33 + nAc33 - n33 = 0	 	
c464:	nU34 - nD34 + nAc34 - n34 = 0	 	
c465:	nU35 - nD35 + nAc35 - n35 = 0	 	
c466:	nU36 - nD36 + nAc36 - n36 = 0	 	
c467:	nU37 - nD37 + nAc37 - n37 = 0	 	
c468:	nU38 - nD38 + nAc38 - n38 = 0	 	
c469:	nU39 - nD39 + nAc39 - n39 = 0	 	
c470:	nU40 - nD40 + nAc40 - n40 = 0	 	
c471:	nU41 - nD41 + nAc41 - n41 = 0	 	
c472:	nU42 - nD42 + nAc42 - n42 = 0	 	
c473:	nU43 - nD43 + nAc43 - n43 = 0	 	
c474:	nU44 - nD44 + nAc44 - n44 = 0	 	
c475:	nU45 - nD45 + nAc45 - n45 = 0	 	
c476:	nU46 - nD46 + nAc46 - n46 = 0	 	
c477:	nAc3 = 0	 	
c478:	nAc7 = 0	 	
c479:	nAc8 = 0	 	
c480:	nAc10 = 0	 	
c481:	nAc11 = 0	 	
c482:	nAc13 = 0	 	
c483:	nAc15 = 0	 	
c484:	nAc17 = 0	 	
c485:	nAc18 = 0	 	
c486:	nAc19 = 0	 	
c487:	nAc20 = 0	 	
c488:	nAc21 = 0	 	
c489:	nAc22 = 0	 	
c490:	nAc24 = 0	 	
c491:	nAc27 = 0	 	
c492:	nAc28 = 0	 	
c493:	nAc29 = 0	 	
c494:	nAc31 = 0	 	
c495:	nAc33 = 0	 	
c496:	nAc35 = 0	 	
c497:	nAc36 = 0	 	
c498:	nAc37 = 0	 	
c499:	nAc40 = 0	 	
c500:	nAc41 = 0	 	
c501:	nAc42 = 0	 	
c502:	nAc46 = 0	 	
c503:	n5 = -1	 	
c504:	n16 = -1	 	
c505:	n26 = -1	 	
c506:	n32 = 1	 	
c507:	n12 = -1	 	
c508:	n44 = -1	 	
c509:	n45 = 1	 	
c510:	n1 = -1	 	
c511:	n30 = 1	 	
c512:	n2 = 1	 	
c513:	n9 = 1	 	
c514:	n14 = -1	 	
c515:	n4 = 1	 	
c516:	n23 = -1	 	
c517:	n6 = -1	 	
c518:	n38 = -1	 	
c519:	n34 = -1	 	
c520:	n43 = -1	 	
c521:	n39 = -1	 	
c522:	n25 = -1	 	
c523:	n14 - nAc14 = 0	 	
c524:	101 eU38 + nDs21 - nDs20 <= 100	 	
c525:	101 eU60 + nDs31 - nDs46 <= 100	 	
c526:	101 eU66 + nDs33 - nDs46 <= 100	 	
c527:	101 eU30 + nDs16 - nDs18 <= 100	 	
c528:	101 eU6 + nDs5 - nDs29 <= 100	 	
c529:	101 eU7 + nDs6 - nDs29 <= 100	 	
c530:	101 eU54 + nDs1 - nDs13 <= 100	 	
c531:	101 eU15 + nDs1 - nDs13 <= 100	 	
c532:	101 eU46 + nDs16 - nDs31 <= 100	 	
c533:	101 eU49 + nDs17 - nDs31 <= 100	 	
c534:	101 eU48 + nDs13 - nDs31 <= 100	 	
c535:	101 eU5 + nDs4 - nDs31 <= 100	 	
c536:	101 eU47 + nDs27 - nDs31 <= 100	 	
c537:	101 eU37 + nDs20 - nDs41 <= 100	 	
c538:	101 eU59 + nDs20 - nDs8 <= 100	 	
c539:	101 eU43 + nDs24 - nDs42 <= 100	 	
c540:	101 eU17 + nDs13 - nDs33 <= 100	 	
c541:	101 eU29 + nDs12 - nDs11 <= 100	 	
c542:	101 eU31 + nDs1 - nDs3 <= 100	 	
c543:	101 eU3 + nDs3 - nDs7 <= 100	 	
c544:	101 eU56 + nDs17 - nDs28 <= 100	 	
c545:	101 eU16 + nDs12 - nDs28 <= 100	 	
c546:	101 eU14 + nDs6 - nDs35 <= 100	 	
c547:	101 eU13 + nDs5 - nDs35 <= 100	 	
c548:	101 eU53 + nDs13 - nDs10 <= 100	 	
c549:	101 eU1 + nDs1 - nDs27 <= 100	 	
c550:	101 eU55 + nDs2 - nDs17 <= 100	 	
c551:	101 eU19 + nDs14 - nDs21 <= 100	 	
c552:	101 eU63 + nDs13 - nDs24 <= 100	 	
c553:	101 eU22 + nDs16 - nDs24 <= 100	 	
c554:	101 eU36 + nDs19 - nDs40 <= 100	 	
c555:	101 eU18 + nDs12 - nDs36 <= 100	 	
c556:	101 eU28 + nDs12 - nDs19 <= 100	 	
c557:	101 eU39 + nDs22 - nDs15 <= 100	 	
c558:	101 eU20 + nDs15 - nDs37 <= 100	 	
c559:	101 eU41 + nDs13 - nDs22 <= 100	 	
c560:	101 eD38 + nDs21 - nDs20 <= 100	 	
c561:	101 eD60 + nDs31 - nDs46 <= 100	 	
c562:	101 eD66 + nDs33 - nDs46 <= 100	 	
c563:	101 eD30 + nDs16 - nDs18 <= 100	 	
c564:	101 eD6 + nDs5 - nDs29 <= 100	 	
c565:	101 eD7 + nDs6 - nDs29 <= 100	 	
c566:	101 eD54 + nDs1 - nDs13 <= 100	 	
c567:	101 eD15 + nDs1 - nDs13 <= 100	 	
c568:	101 eD46 + nDs16 - nDs31 <= 100	 	
c569:	101 eD49 + nDs17 - nDs31 <= 100	 	
c570:	101 eD48 + nDs13 - nDs31 <= 100	 	
c571:	101 eD5 + nDs4 - nDs31 <= 100	 	
c572:	101 eD47 + nDs27 - nDs31 <= 100	 	
c573:	101 eD37 + nDs20 - nDs41 <= 100	 	
c574:	101 eD59 + nDs20 - nDs8 <= 100	 	
c575:	101 eD43 + nDs24 - nDs42 <= 100	 	
c576:	101 eD17 + nDs13 - nDs33 <= 100	 	
c577:	101 eD29 + nDs12 - nDs11 <= 100	 	
c578:	101 eD31 + nDs1 - nDs3 <= 100	 	
c579:	101 eD3 + nDs3 - nDs7 <= 100	 	
c580:	101 eD56 + nDs17 - nDs28 <= 100	 	
c581:	101 eD16 + nDs12 - nDs28 <= 100	 	
c582:	101 eD14 + nDs6 - nDs35 <= 100	 	
c583:	101 eD13 + nDs5 - nDs35 <= 100	 	
c584:	101 eD53 + nDs13 - nDs10 <= 100	 	
c585:	101 eD1 + nDs1 - nDs27 <= 100	 	
c586:	101 eD55 + nDs2 - nDs17 <= 100	 	
c587:	101 eD19 + nDs14 - nDs21 <= 100	 	
c588:	101 eD63 + nDs13 - nDs24 <= 100	 	
c589:	101 eD22 + nDs16 - nDs24 <= 100	 	
c590:	101 eD36 + nDs19 - nDs40 <= 100	 	
c591:	101 eD18 + nDs12 - nDs36 <= 100	 	
c592:	101 eD28 + nDs12 - nDs19 <= 100	 	
c593:	101 eD39 + nDs22 - nDs15 <= 100	 	
c594:	101 eD20 + nDs15 - nDs37 <= 100	 	
c595:	101 eD41 + nDs13 - nDs22 <= 100	 	
Bounds
	-1 <= n1 <= 1
	-1 <= n2 <= 1
	-1 <= n3 <= 1
	-1 <= n4 <= 1
	-1 <= n5 <= 1
	-1 <= n6 <= 1
	-1 <= n7 <= 1
	-1 <= n8 <= 1
	-1 <= n9 <= 1
	-1 <= n10 <= 1
	-1 <= n11 <= 1
	-1 <= n12 <= 1
	-1 <= n13 <= 1
	-1 <= n14 <= 1
	-1 <= n15 <= 1
	-1 <= n16 <= 1
	-1 <= n17 <= 1
	-1 <= n18 <= 1
	-1 <= n19 <= 1
	-1 <= n20 <= 1
	-1 <= n21 <= 1
	-1 <= n22 <= 1
	-1 <= n23 <= 1
	-1 <= n24 <= 1
	-1 <= n25 <= 1
	-1 <= n26 <= 1
	-1 <= n27 <= 1
	-1 <= n28 <= 1
	-1 <= n29 <= 1
	-1 <= n30 <= 1
	-1 <= n31 <= 1
	-1 <= n32 <= 1
	-1 <= n33 <= 1
	-1 <= n34 <= 1
	-1 <= n35 <= 1
	-1 <= n36 <= 1
	-1 <= n37 <= 1
	-1 <= n38 <= 1
	-1 <= n39 <= 1
	-1 <= n40 <= 1
	-1 <= n41 <= 1
	-1 <= n42 <= 1
	-1 <= n43 <= 1
	-1 <= n44 <= 1
	-1 <= n45 <= 1
	-1 <= n46 <= 1
	0 <= nU1 <= 1
	0 <= nU2 <= 1
	0 <= nU3 <= 1
	0 <= nU4 <= 1
	0 <= nU5 <= 1
	0 <= nU6 <= 1
	0 <= nU7 <= 1
	0 <= nU8 <= 1
	0 <= nU9 <= 1
	0 <= nU10 <= 1
	0 <= nU11 <= 1
	0 <= nU12 <= 1
	0 <= nU13 <= 1
	0 <= nU14 <= 1
	0 <= nU15 <= 1
	0 <= nU16 <= 1
	0 <= nU17 <= 1
	0 <= nU18 <= 1
	0 <= nU19 <= 1
	0 <= nU20 <= 1
	0 <= nU21 <= 1
	0 <= nU22 <= 1
	0 <= nU23 <= 1
	0 <= nU24 <= 1
	0 <= nU25 <= 1
	0 <= nU26 <= 1
	0 <= nU27 <= 1
	0 <= nU28 <= 1
	0 <= nU29 <= 1
	0 <= nU30 <= 1
	0 <= nU31 <= 1
	0 <= nU32 <= 1
	0 <= nU33 <= 1
	0 <= nU34 <= 1
	0 <= nU35 <= 1
	0 <= nU36 <= 1
	0 <= nU37 <= 1
	0 <= nU38 <= 1
	0 <= nU39 <= 1
	0 <= nU40 <= 1
	0 <= nU41 <= 1
	0 <= nU42 <= 1
	0 <= nU43 <= 1
	0 <= nU44 <= 1
	0 <= nU45 <= 1
	0 <= nU46 <= 1
	0 <= nD1 <= 1
	0 <= nD2 <= 1
	0 <= nD3 <= 1
	0 <= nD4 <= 1
	0 <= nD5 <= 1
	0 <= nD6 <= 1
	0 <= nD7 <= 1
	0 <= nD8 <= 1
	0 <= nD9 <= 1
	0 <= nD10 <= 1
	0 <= nD11 <= 1
	0 <= nD12 <= 1
	0 <= nD13 <= 1
	0 <= nD14 <= 1
	0 <= nD15 <= 1
	0 <= nD16 <= 1
	0 <= nD17 <= 1
	0 <= nD18 <= 1
	0 <= nD19 <= 1
	0 <= nD20 <= 1
	0 <= nD21 <= 1
	0 <= nD22 <= 1
	0 <= nD23 <= 1
	0 <= nD24 <= 1
	0 <= nD25 <= 1
	0 <= nD26 <= 1
	0 <= nD27 <= 1
	0 <= nD28 <= 1
	0 <= nD29 <= 1
	0 <= nD30 <= 1
	0 <= nD31 <= 1
	0 <= nD32 <= 1
	0 <= nD33 <= 1
	0 <= nD34 <= 1
	0 <= nD35 <= 1
	0 <= nD36 <= 1
	0 <= nD37 <= 1
	0 <= nD38 <= 1
	0 <= nD39 <= 1
	0 <= nD40 <= 1
	0 <= nD41 <= 1
	0 <= nD42 <= 1
	0 <= nD43 <= 1
	0 <= nD44 <= 1
	0 <= nD45 <= 1
	0 <= nD46 <= 1
	0 <= eU1 <= 1
	0 <= eU2 <= 1
	0 <= eU3 <= 1
	0 <= eU4 <= 1
	0 <= eU5 <= 1
	0 <= eU6 <= 1
	0 <= eU7 <= 1
	0 <= eU8 <= 1
	0 <= eU9 <= 1
	0 <= eU10 <= 1
	0 <= eU11 <= 1
	0 <= eU12 <= 1
	0 <= eU13 <= 1
	0 <= eU14 <= 1
	0 <= eU15 <= 1
	0 <= eU16 <= 1
	0 <= eU17 <= 1
	0 <= eU18 <= 1
	0 <= eU19 <= 1
	0 <= eU20 <= 1
	0 <= eU21 <= 1
	0 <= eU22 <= 1
	0 <= eU23 <= 1
	0 <= eU24 <= 1
	0 <= eU25 <= 1
	0 <= eU26 <= 1
	0 <= eU27 <= 1
	0 <= eU28 <= 1
	0 <= eU29 <= 1
	0 <= eU30 <= 1
	0 <= eU31 <= 1
	0 <= eU32 <= 1
	0 <= eU33 <= 1
	0 <= eU34 <= 1
	0 <= eU35 <= 1
	0 <= eU36 <= 1
	0 <= eU37 <= 1
	0 <= eU38 <= 1
	0 <= eU39 <= 1
	0 <= eU40 <= 1
	0 <= eU41 <= 1
	0 <= eU42 <= 1
	0 <= eU43 <= 1
	0 <= eU44 <= 1
	0 <= eU45 <= 1
	0 <= eU46 <= 1
	0 <= eU47 <= 1
	0 <= eU48 <= 1
	0 <= eU49 <= 1
	0 <= eU50 <= 1
	0 <= eU51 <= 1
	0 <= eU52 <= 1
	0 <= eU53 <= 1
	0 <= eU54 <= 1
	0 <= eU55 <= 1
	0 <= eU56 <= 1
	0 <= eU57 <= 1
	0 <= eU58 <= 1
	0 <= eU59 <= 1
	0 <= eU60 <= 1
	0 <= eU61 <= 1
	0 <= eU62 <= 1
	0 <= eU63 <= 1
	0 <= eU64 <= 1
	0 <= eU65 <= 1
	0 <= eU66 <= 1
	0 <= eD1 <= 1
	0 <= eD2 <= 1
	0 <= eD3 <= 1
	0 <= eD4 <= 1
	0 <= eD5 <= 1
	0 <= eD6 <= 1
	0 <= eD7 <= 1
	0 <= eD8 <= 1
	0 <= eD9 <= 1
	0 <= eD10 <= 1
	0 <= eD11 <= 1
	0 <= eD12 <= 1
	0 <= eD13 <= 1
	0 <= eD14 <= 1
	0 <= eD15 <= 1
	0 <= eD16 <= 1
	0 <= eD17 <= 1
	0 <= eD18 <= 1
	0 <= eD19 <= 1
	0 <= eD20 <= 1
	0 <= eD21 <= 1
	0 <= eD22 <= 1
	0 <= eD23 <= 1
	0 <= eD24 <= 1
	0 <= eD25 <= 1
	0 <= eD26 <= 1
	0 <= eD27 <= 1
	0 <= eD28 <= 1
	0 <= eD29 <= 1
	0 <= eD30 <= 1
	0 <= eD31 <= 1
	0 <= eD32 <= 1
	0 <= eD33 <= 1
	0 <= eD34 <= 1
	0 <= eD35 <= 1
	0 <= eD36 <= 1
	0 <= eD37 <= 1
	0 <= eD38 <= 1
	0 <= eD39 <= 1
	0 <= eD40 <= 1
	0 <= eD41 <= 1
	0 <= eD42 <= 1
	0 <= eD43 <= 1
	0 <= eD44 <= 1
	0 <= eD45 <= 1
	0 <= eD46 <= 1
	0 <= eD47 <= 1
	0 <= eD48 <= 1
	0 <= eD49 <= 1
	0 <= eD50 <= 1
	0 <= eD51 <= 1
	0 <= eD52 <= 1
	0 <= eD53 <= 1
	0 <= eD54 <= 1
	0 <= eD55 <= 1
	0 <= eD56 <= 1
	0 <= eD57 <= 1
	0 <= eD58 <= 1
	0 <= eD59 <= 1
	0 <= eD60 <= 1
	0 <= eD61 <= 1
	0 <= eD62 <= 1
	0 <= eD63 <= 1
	0 <= eD64 <= 1
	0 <= eD65 <= 1
	0 <= eD66 <= 1
	0 <= aD2 <= 2
	0 <= aD3 <= 2
	0 <= aD1 <= 2
	0 <= aD4 <= 2
	-1 <= nAc1 <= 1
	-1 <= nAc2 <= 1
	-1 <= nAc3 <= 1
	-1 <= nAc4 <= 1
	-1 <= nAc5 <= 1
	-1 <= nAc6 <= 1
	-1 <= nAc7 <= 1
	-1 <= nAc8 <= 1
	-1 <= nAc9 <= 1
	-1 <= nAc10 <= 1
	-1 <= nAc11 <= 1
	-1 <= nAc12 <= 1
	-1 <= nAc13 <= 1
	-1 <= nAc14 <= 1
	-1 <= nAc15 <= 1
	-1 <= nAc16 <= 1
	-1 <= nAc17 <= 1
	-1 <= nAc18 <= 1
	-1 <= nAc19 <= 1
	-1 <= nAc20 <= 1
	-1 <= nAc21 <= 1
	-1 <= nAc22 <= 1
	-1 <= nAc23 <= 1
	-1 <= nAc24 <= 1
	-1 <= nAc25 <= 1
	-1 <= nAc26 <= 1
	-1 <= nAc27 <= 1
	-1 <= nAc28 <= 1
	-1 <= nAc29 <= 1
	-1 <= nAc30 <= 1
	-1 <= nAc31 <= 1
	-1 <= nAc32 <= 1
	-1 <= nAc33 <= 1
	-1 <= nAc34 <= 1
	-1 <= nAc35 <= 1
	-1 <= nAc36 <= 1
	-1 <= nAc37 <= 1
	-1 <= nAc38 <= 1
	-1 <= nAc39 <= 1
	-1 <= nAc40 <= 1
	-1 <= nAc41 <= 1
	-1 <= nAc42 <= 1
	-1 <= nAc43 <= 1
	-1 <= nAc44 <= 1
	-1 <= nAc45 <= 1
	-1 <= nAc46 <= 1
	0 <= nDs1 <= 100
	0 <= nDs2 <= 100
	0 <= nDs3 <= 100
	0 <= nDs4 <= 100
	0 <= nDs5 <= 100
	0 <= nDs6 <= 100
	0 <= nDs7 <= 100
	0 <= nDs8 <= 100
	0 <= nDs9 <= 100
	0 <= nDs10 <= 100
	0 <= nDs11 <= 100
	0 <= nDs12 <= 100
	0 <= nDs13 <= 100
	0 <= nDs14 <= 100
	0 <= nDs15 <= 100
	0 <= nDs16 <= 100
	0 <= nDs17 <= 100
	0 <= nDs18 <= 100
	0 <= nDs19 <= 100
	0 <= nDs20 <= 100
	0 <= nDs21 <= 100
	0 <= nDs22 <= 100
	0 <= nDs23 <= 100
	0 <= nDs24 <= 100
	0 <= nDs25 <= 100
	0 <= nDs26 <= 100
	0 <= nDs27 <= 100
	0 <= nDs28 <= 100
	0 <= nDs29 <= 100
	0 <= nDs30 <= 100
	0 <= nDs31 <= 100
	0 <= nDs32 <= 100
	0 <= nDs33 <= 100
	0 <= nDs34 <= 100
	0 <= nDs35 <= 100
	0 <= nDs36 <= 100
	0 <= nDs37 <= 100
	0 <= nDs38 <= 100
	0 <= nDs39 <= 100
	0 <= nDs40 <= 100
	0 <= nDs41 <= 100
	0 <= nDs42 <= 100
	0 <= nDs43 <= 100
	0 <= nDs44 <= 100
	0 <= nDs45 <= 100
	0 <= nDs46 <= 100
Binaries
nU1
nU2
nU3
nU4
nU5
nU6
nU7
nU8
nU9
nU10
nU11
nU12
nU13
nU14
nU15
nU16
nU17
nU18
nU19
nU20
nU21
nU22
nU23
nU24
nU25
nU26
nU27
nU28
nU29
nU30
nU31
nU32
nU33
nU34
nU35
nU36
nU37
nU38
nU39
nU40
nU41
nU42
nU43
nU44
nU45
nU46
nD1
nD2
nD3
nD4
nD5
nD6
nD7
nD8
nD9
nD10
nD11
nD12
nD13
nD14
nD15
nD16
nD17
nD18
nD19
nD20
nD21
nD22
nD23
nD24
nD25
nD26
nD27
nD28
nD29
nD30
nD31
nD32
nD33
nD34
nD35
nD36
nD37
nD38
nD39
nD40
nD41
nD42
nD43
nD44
nD45
nD46
eU1
eU2
eU3
eU4
eU5
eU6
eU7
eU8
eU9
eU10
eU11
eU12
eU13
eU14
eU15
eU16
eU17
eU18
eU19
eU20
eU21
eU22
eU23
eU24
eU25
eU26
eU27
eU28
eU29
eU30
eU31
eU32
eU33
eU34
eU35
eU36
eU37
eU38
eU39
eU40
eU41
eU42
eU43
eU44
eU45
eU46
eU47
eU48
eU49
eU50
eU51
eU52
eU53
eU54
eU55
eU56
eU57
eU58
eU59
eU60
eU61
eU62
eU63
eU64
eU65
eU66
eD1
eD2
eD3
eD4
eD5
eD6
eD7
eD8
eD9
eD10
eD11
eD12
eD13
eD14
eD15
eD16
eD17
eD18
eD19
eD20
eD21
eD22
eD23
eD24
eD25
eD26
eD27
eD28
eD29
eD30
eD31
eD32
eD33
eD34
eD35
eD36
eD37
eD38
eD39
eD40
eD41
eD42
eD43
eD44
eD45
eD46
eD47
eD48
eD49
eD50
eD51
eD52
eD53
eD54
eD55
eD56
eD57
eD58
eD59
eD60
eD61
eD62
eD63
eD64
eD65
eD66
Generals
n1
n2
n3
n4
n5
n6
n7
n8
n9
n10
n11
n12
n13
n14
n15
n16
n17
n18
n19
n20
n21
n22
n23
n24
n25
n26
n27
n28
n29
n30
n31
n32
n33
n34
n35
n36
n37
n38
n39
n40
n41
n42
n43
n44
n45
n46
nAc1
nAc2
nAc3
nAc4
nAc5
nAc6
nAc7
nAc8
nAc9
nAc10
nAc11
nAc12
nAc13
nAc14
nAc15
nAc16
nAc17
nAc18
nAc19
nAc20
nAc21
nAc22
nAc23
nAc24
nAc25
nAc26
nAc27
nAc28
nAc29
nAc30
nAc31
nAc32
nAc33
nAc34
nAc35
nAc36
nAc37
nAc38
nAc39
nAc40
nAc41
nAc42
nAc43
nAc44
nAc45
nAc46
aD2
aD3
aD1
aD4
End
